
Gurobi 6.5.2 (linux64) logging started Tue Sep  6 10:06:30 2016

Optimize a model with 101 rows, 663 columns and 1609 nonzeros
Coefficient statistics:
  Matrix range    [1e+00, 2e+00]
  Objective range [3e+00, 1e+02]
  Bounds range    [1e+00, 1e+00]
  RHS range       [1e+00, 1e+00]
Found heuristic solution: objective 2052
Presolve removed 33 rows and 3 columns
Presolve time: 0.00s
Presolved: 68 rows, 660 columns, 1367 nonzeros
Variable types: 0 continuous, 660 integer (660 binary)

Root relaxation: objective 7.660000e+02, 65 iterations, 0.00 seconds

    Nodes    |    Current Node    |     Objective Bounds      |     Work
 Expl Unexpl |  Obj  Depth IntInf | Incumbent    BestBd   Gap | It/Node Time

     0     0  766.00000    0    4 2052.00000  766.00000  62.7%     -    0s
H    0     0                    1120.0000000  766.00000  31.6%     -    0s
     0     0  785.00000    0    2 1120.00000  785.00000  29.9%     -    0s
     0     0  787.50000    0    6 1120.00000  787.50000  29.7%     -    0s
     0     0  787.50000    0    4 1120.00000  787.50000  29.7%     -    0s
     0     0  788.00000    0   20 1120.00000  788.00000  29.6%     -    0s
     0     0  788.00000    0   20 1120.00000  788.00000  29.6%     -    0s
     0     2  788.00000    0   20 1120.00000  788.00000  29.6%     -    0s
*   89    44              23     836.0000000  788.33333  5.70%   3.1    0s
*   98    26               7     791.0000000  788.33333  0.34%   3.2    0s

Cutting planes:
  Gomory: 6
  Cover: 12
  MIR: 1
  Zero half: 1
  Lazy constraints: 30

Explored 196 nodes (732 simplex iterations) in 0.12 seconds
Thread count was 8 (of 8 available processors)

Optimal solution found (tolerance 1.00e-04)
Best objective 7.910000000000e+02, best bound 7.910000000000e+02, gap 0.0%
